p cnf 172 248
17 7 43 47 0
17 7 43 -47 0
-33 -2 1 48 0
-33 -2 1 -48 0
-29 -8 -25 49 0
-29 -8 -25 -49 0
13 -24 14 50 0
13 -24 14 -50 0
30 12 -20 51 0
30 12 -20 -51 0
42 32 -6 52 0
42 32 -6 -52 0
41 -12 -10 53 0
41 -12 -10 -53 0
45 38 29 54 0
45 38 29 -54 0
7 -17 -43 55 0
7 -17 -43 -55 0
15 46 -9 56 0
15 46 -9 -56 0
-5 30 36 57 0
-5 30 36 -57 0
-5 16 -13 58 0
-5 16 -13 -58 0
-41 12 -10 59 0
-41 12 -10 -59 0
37 -42 -8 60 0
37 -42 -8 -60 0
13 -14 24 61 0
13 -14 24 -61 0
-14 11 39 62 0
-14 11 39 -62 0
2 -24 -7 63 0
2 -24 -7 -63 0
17 -7 -43 64 0
17 -7 -43 -64 0
10 32 -33 65 0
10 32 -33 -65 0
1 22 40 66 0
1 22 40 -66 0
-34 -15 -11 67 0
-34 -15 -11 -67 0
-11 39 14 68 0
-11 39 14 -68 0
36 5 -30 69 0
36 5 -30 -69 0
-26 3 -34 70 0
-26 3 -34 -70 0
-32 33 10 71 0
-32 33 10 -71 0
-1 -22 40 72 0
-1 -22 40 -72 0
-22 18 43 73 0
-22 18 43 -73 0
35 3 18 74 0
35 3 18 -74 0
-4 17 -44 75 0
-4 17 -44 -75 0
-31 21 19 76 0
-31 21 19 -76 0
11 15 -34 77 0
11 15 -34 -77 0
-44 23 26 78 0
-44 23 26 -78 0
-46 9 15 79 0
-46 9 15 -79 0
33 32 -10 80 0
33 32 -10 -80 0
19 38 -20 81 0
19 38 -20 -81 0
38 -29 -45 82 0
38 -29 -45 -82 0
-44 4 -17 83 0
-44 4 -17 -83 0
16 13 5 84 0
16 13 5 -84 0
-35 6 -27 85 0
-35 6 -27 -85 0
35 6 27 86 0
35 6 27 -86 0
-18 -3 35 87 0
-18 -3 35 -87 0
-16 5 -13 88 0
-16 5 -13 -88 0
12 20 -30 89 0
12 20 -30 -89 0
3 -35 -18 90 0
3 -35 -18 -90 0
36 28 39 91 0
36 28 39 -91 0
29 -38 -45 92 0
29 -38 -45 -92 0
-42 8 -37 93 0
-42 8 -37 -93 0
35 -27 -6 94 0
35 -27 -6 -94 0
1 -40 -22 95 0
1 -40 -22 -95 0
34 -11 15 96 0
34 -11 15 -96 0
45 -38 -29 97 0
45 -38 -29 -97 0
-9 -16 98 99 0
-9 -16 98 -99 0
-9 -16 -98 100 0
-9 -16 -98 -100 0
42 37 8 101 0
42 37 8 -101 0
34 -15 11 102 0
34 -15 11 -102 0
38 -19 20 103 0
38 -19 20 -103 0
13 -16 -5 104 0
13 -16 -5 -104 0
-39 11 14 105 0
-39 11 14 -105 0
-42 6 32 106 0
-42 6 32 -106 0
-15 46 9 107 0
-15 46 9 -107 0
19 -21 31 108 0
19 -21 31 -108 0
-41 46 45 109 0
-41 46 45 -109 0
8 29 -25 110 0
8 29 -25 -110 0
-43 18 22 111 0
-43 18 22 -111 0
-17 43 -7 112 0
-17 43 -7 -112 0
26 -23 44 113 0
26 -23 44 -113 0
40 37 -25 114 0
40 37 -25 -114 0
7 -24 -2 115 0
7 -24 -2 -115 0
9 16 116 117 0
9 16 116 -117 0
9 16 -116 118 0
9 16 -116 -118 0
20 19 -38 119 0
20 19 -38 -119 0
10 -41 -12 120 0
10 -41 -12 -120 0
-19 -31 -21 121 0
-19 -31 -21 -121 0
-26 34 -3 122 0
-26 34 -3 -122 0
7 2 24 123 0
7 2 24 -123 0
28 -27 23 124 0
28 -27 23 -124 0
6 42 -32 125 0
6 42 -32 -125 0
-7 -2 24 126 0
-7 -2 24 -126 0
-6 -35 27 127 0
-6 -35 27 -127 0
-40 22 -1 128 0
-40 22 -1 -128 0
36 -39 -28 129 0
36 -39 -28 -129 0
-9 -15 -46 130 0
-9 -15 -46 -130 0
23 44 -26 131 0
23 44 -26 -131 0
-34 -3 26 132 0
-34 -3 26 -132 0
29 -8 25 133 0
29 -8 25 -133 0
45 -46 41 134 0
45 -46 41 -134 0
2 -33 -1 135 0
2 -33 -1 -135 0
-21 -4 31 136 0
-21 -4 31 -136 0
-28 -23 -27 137 0
-28 -23 -27 -137 0
-37 -8 42 138 0
-37 -8 42 -138 0
23 -28 27 139 0
23 -28 27 -139 0
-2 -1 33 140 0
-2 -1 33 -140 0
30 -12 20 141 0
30 -12 20 -141 0
-3 -35 18 142 0
-3 -35 18 -142 0
-40 25 37 143 0
-40 25 37 -143 0
-4 21 -31 144 0
-4 21 -31 -144 0
24 14 -13 145 0
24 14 -13 -145 0
-24 -13 -14 146 0
-24 -13 -14 -146 0
-40 -25 -37 147 0
-40 -25 -37 -147 0
-19 21 31 148 0
-19 21 31 -148 0
-23 27 28 149 0
-23 27 28 -149 0
17 4 44 150 0
17 4 44 -150 0
33 2 1 151 0
33 2 1 -151 0
-20 -38 -19 152 0
-20 -38 -19 -152 0
4 21 31 153 0
4 21 31 -153 0
-33 -32 -10 154 0
-33 -32 -10 -154 0
25 -29 8 155 0
25 -29 8 -155 0
39 -28 -36 156 0
39 -28 -36 -156 0
-22 -18 -43 157 0
-22 -18 -43 -157 0
-12 -30 -20 158 0
-12 -30 -20 -158 0
-36 -30 -5 159 0
-36 -30 -5 -159 0
-17 44 -4 160 0
-17 44 -4 -160 0
3 34 26 161 0
3 34 26 -161 0
-32 -6 -42 162 0
-32 -6 -42 -162 0
25 -37 40 163 0
25 -37 40 -163 0
-31 -21 4 164 0
-31 -21 4 -164 0
-36 5 30 165 0
-36 5 30 -165 0
-23 -44 -26 166 0
-23 -44 -26 -166 0
-36 28 -39 167 0
-36 28 -39 -167 0
41 -45 46 168 0
41 -45 46 -168 0
-39 -11 -14 169 0
-39 -11 -14 -169 0
10 41 12 170 0
10 41 12 -170 0
-45 -46 -41 171 0
-45 -46 -41 -171 0
22 -18 43 172 0
22 -18 43 -172 0

